Instance: E076-14s.dat
Class:  2
   75 --- number of customers (no depot)
   17 --- number of vehicles
  124 --- number of items
Capacity - height - width of vehicles
   100     40     20
Node - x - y - demand
    0    40.0    40.0     0.0
    1    22.0    22.0    18.0
    2    36.0    26.0    26.0
    3    21.0    45.0    11.0
    4    45.0    35.0    30.0
    5    55.0    20.0    21.0
    6    33.0    34.0    19.0
    7    50.0    50.0    15.0
    8    55.0    45.0    16.0
    9    26.0    59.0    29.0
   10    40.0    66.0    26.0
   11    55.0    65.0    37.0
   12    35.0    51.0    16.0
   13    62.0    35.0    12.0
   14    62.0    57.0    31.0
   15    62.0    24.0     8.0
   16    21.0    36.0    19.0
   17    33.0    44.0    20.0
   18     9.0    56.0    13.0
   19    62.0    48.0    15.0
   20    66.0    14.0    22.0
   21    44.0    13.0    28.0
   22    26.0    13.0    12.0
   23    11.0    28.0     6.0
   24     7.0    43.0    27.0
   25    17.0    64.0    14.0
   26    41.0    46.0    18.0
   27    55.0    34.0    17.0
   28    35.0    16.0    29.0
   29    52.0    26.0    13.0
   30    43.0    26.0    22.0
   31    31.0    76.0    25.0
   32    22.0    53.0    28.0
   33    26.0    29.0    27.0
   34    50.0    40.0    19.0
   35    55.0    50.0    10.0
   36    54.0    10.0    12.0
   37    60.0    15.0    14.0
   38    47.0    66.0    24.0
   39    30.0    60.0    16.0
   40    30.0    50.0    33.0
   41    12.0    17.0    15.0
   42    15.0    14.0    11.0
   43    16.0    19.0    18.0
   44    21.0    48.0    17.0
   45    50.0    30.0    21.0
   46    51.0    42.0    27.0
   47    50.0    15.0    19.0
   48    48.0    21.0    20.0
   49    12.0    38.0     5.0
   50    15.0    56.0    22.0
   51    29.0    39.0    12.0
   52    54.0    38.0    19.0
   53    55.0    57.0    22.0
   54    67.0    41.0    16.0
   55    10.0    70.0     7.0
   56     6.0    25.0    26.0
   57    65.0    27.0    14.0
   58    40.0    60.0    21.0
   59    70.0    64.0    24.0
   60    64.0     4.0    13.0
   61    36.0     6.0    15.0
   62    30.0    20.0    18.0
   63    20.0    30.0    11.0
   64    15.0     5.0    28.0
   65    50.0    70.0     9.0
   66    57.0    72.0    37.0
   67    45.0    42.0    30.0
   68    38.0    33.0    10.0
   69    50.0     4.0     8.0
   70    66.0     8.0    11.0
   71    59.0     5.0     3.0
   72    35.0    60.0     1.0
   73    27.0    24.0     6.0
   74    40.0    20.0    10.0
   75    40.0    37.0    20.0
Node - number of items - h - w for each item
    0   0
    1   1   22    3
    2   2   12   10    9    6
    3   2   32    4   32    3
    4   2    7   12   26    3
    5   2    7   15   28    4
    6   2   29    3   31    2
    7   1   18    6
    8   2   18    7   30    4
    9   1    7   15
   10   1   28    2
   11   1   17    2
   12   2    7   16   33    3
   13   2   12    9   10    9
   14   1   34    2
   15   2    6    9   32    3
   16   2   19    7   35    4
   17   1   19    4
   18   1   25    4
   19   2   11    9   11    9
   20   2    7   13   28    3
   21   1   36    3
   22   2    6   18   13    9
   23   2    6   15    5    8
   24   2   34    3   26    3
   25   1    7   12
   26   2    5    8   33    3
   27   2    7   11   17   10
   28   2   19    9   29    2
   29   2    6   16   29    3
   30   2    7   15   16    6
   31   1   17    4
   32   2   17    3   25    2
   33   2    9    8   17    3
   34   2    7   10   18    4
   35   1    5   17
   36   2    5   18   17    9
   37   2   32    3   21    2
   38   2    7   14    9    5
   39   2    7   15   18    7
   40   2   27    4   27    4
   41   2   35    3   29    2
   42   1   15    9
   43   2    7   13   11    8
   44   2    6   10   25    4
   45   1    5   12
   46   1   21    2
   47   2    7   13   11    6
   48   2   19    7   19    6
   49   2   16   10   22    3
   50   2   12    7   28    3
   51   2    6   13   19    2
   52   2    5    9   28    3
   53   2   29    3   28    2
   54   2   12    4    9    4
   55   2   35    4   16    4
   56   2    6   17   17    8
   57   2    6   14   16    9
   58   2   17    3   16    3
   59   1    8   14
   60   2    5   14    4   11
   61   1    5   17
   62   1   32    4
   63   2    6   11   27    3
   64   2    5   18   17    3
   65   1   19    7
   66   1   11    6
   67   1   12   10
   68   1   19    9
   69   1   32    2
   70   2    6   11   14    7
   71   2   15    7   13    6
   72   2   27    3   28    2
   73   1   17    5
   74   1    4   18
   75   1    7   12
